% demand
num_movements = 20;
loading_factor = [1500, 850, 1050, 1700, 1200, 1150, 900, 900, 850, 1800, 1400, 2000, 800, 1850, 1300, 1300, 900, 1850, 1850, 1100];
pickup_time = [0, 0, 0, 0, 0, 1, 1, 1, 2, 2, 2, 3, 4, 4, 4, 4, 6, 6, 6, 6];
delivery_time = [1, 1, 1, 1, 1, 4, 3, 3, 3, 4, 3, 4, 5, 5, 5, 8, 8, 8, 8, 7];

% transporter definition
total_capacity = 7000;
num_decks = 3;
capacity = [3000, 1000, 3000];

% ways out of decks
num_ways_out = 1;
paths_out = array3d(decks, ways_out, decks, [
% ways out of deck d1
2, 3, 0, 

% ways out of deck d2
3, 0, 0, 

% ways out of deck d3
0, 0, 0,	

]);

